*Heading
 Powder-bed electron-beam melting: transient thermal model of a single scan track
** Units: mm, s, tonne, mJ (power in mW); temperature in deg C.
** Run with the user subroutine for the beam:
**   abaqus job=ebm_single_track user=dflux.for cpus=8 interactive
*Preprint, echo=NO, model=NO, history=NO, contact=NO
**
** ------------------------------------------------------------------
** PART: 21 x 2.5 x 10.07 mm block, half model about the plane y = 0
** (the scan line). The top 0.07 mm is the powder layer.
** ------------------------------------------------------------------
*Part, name=BLOCK
*Include, input=ebm_mesh.inp
*Nset, nset=PART_ALL, generate
      1,  215730,       1
*Elset, elset=PART_ALL, generate
      1,  198600,       1
*Solid Section, elset=PART_ALL, material=TI_ALLOY
,
*End Part
**
*Assembly, name=Assembly
*Instance, name=BLOCK-1, part=BLOCK
*End Instance
*Include, input=ebm_sets.inp
*Surface, type=ELEMENT, name=TOP_SURFACE
_TOP_SURFACE_S6, S6
_TOP_SURFACE_S4, S4
*End Assembly
**
** ------------------------------------------------------------------
** MATERIAL: titanium alloy, temperature-dependent thermal properties
**   conductivity  mW/(mm K)    (numerically equal to W/(m K))
**   density       tonne/mm^3   (4.42e-09 = 4420 kg/m^3)
**   specific heat mJ/(tonne K) (5.46e+08 = 546 J/(kg K))
**   latent heat   mJ/tonne between solidus 1605 C and liquidus 1655 C
** ------------------------------------------------------------------
*Material, name=TI_ALLOY
*Conductivity
     6.2,  20.
 6.63507, 100.
  7.1789, 200.
 7.72274, 300.
 8.26658, 400.
 8.81041, 500.
 9.35425, 600.
 9.89808, 700.
   10.17, 750.
 10.4419, 800.
 10.9858, 900.
 10.5024, 995.
 12.0734,1100.
 12.6173,1200.
 13.1611,1300.
 13.7049,1400.
 14.2488,1500.
 14.7926,1600.
 15.0645,1650.
 15.0917,1655.
*Density
 4.42e-09,  25.
 4.41e-09, 100.
  4.4e-09, 200.
 4.38e-09, 300.
 4.37e-09, 400.
 4.35e-09, 500.
 4.34e-09, 600.
 4.32e-09, 700.
 4.31e-09, 800.
 4.29e-09, 900.
 4.28e-09, 995.
 4.27e-09,1100.
 4.25e-09,1200.
 4.24e-09,1300.
 4.23e-09,1400.
 4.21e-09,1500.
  4.2e-09,1600.
 4.19e-09,1650.
 3.78e-09,3317.
*Latent Heat
 4.4e+11,1605.,1655.
*Specific Heat
 5.46e+08,  25.
 5.62e+08, 100.
 5.84e+08, 200.
 6.06e+08, 300.
 6.29e+08, 400.
 6.51e+08, 500.
 6.73e+08, 600.
 6.94e+08, 700.
 7.14e+08, 800.
 7.34e+08, 900.
 6.41e+08, 995.
  6.6e+08,1100.
 6.78e+08,1200.
 6.96e+08,1300.
 7.14e+08,1400.
 7.32e+08,1500.
  7.5e+08,1600.
 7.59e+08,1650.
  8.3e+08,1651.
  8.3e+08,1903.
**
*Physical Constants, absolute zero=-273.15, stefan boltzmann=5.669e-11
**
** Preheat: the whole block starts at 730 C.
*Initial Conditions, type=TEMPERATURE
ALL, 730.
**
** ------------------------------------------------------------------
** STEP: one scan, 0.02 s, automatic time stepping
** (at most 100 C temperature change per increment)
** ------------------------------------------------------------------
*Step, name=SCAN, nlgeom=NO, inc=5000
*Heat Transfer, end=PERIOD, deltmx=100.
1e-05, 0.02, 1e-20, 0.02, 
**
** Base plate held at the preheat temperature
*Boundary
BASE, 11, 11, 730.
**
** Electron beam: body flux in the powder layer from user subroutine DFLUX
*Dflux
POWDER_LAYER, BFNU, 1.
**
** Radiation from the top surface to a 730 C environment, emissivity 0.7
*Sradiate
TOP_SURFACE, R, 730., 0.7
**
*Restart, write, frequency=0
*Output, field, variable=PRESELECT
*Output, history, frequency=0
*End Step
